src/smtinterpol/proofs/or.smt2
(set-option :produce-proofs true)
(set-option :print-terms-cse false)
(set-logic QF_UF)
(declare-fun x () Bool)
(declare-fun y () Bool)
(assert x)
(assert (not y))
(assert (= x y))
(check-sat)
(get-proof)
